
  22    4
  10   10   10   10

   0   0   0   0   0   3 2 3 6 
   8  10  10  10  10   3 8 5 4 
   6  10  10  10  10   2 7 4 
   8  10  10  10  10   3 11 10 9 
   6  10  10  10  10   3 13 12 9 
   7  10  10  10  10   2 11 9 
   3  10  10  10  10   2 12 11 
   6  10  10  10  10   1 10 
   2  10  10  10  10   3 17 15 14 
   7  10  10  10  10   3 19 15 13 
   1  10  10  10  10   2 14 13 
   7  10  10  10  10   2 21 14 
   6  10  10  10  10   3 21 17 16 
   7  10  10  10  10   2 19 16 
   1  10  10  10  10   2 21 16 
   4  10  10  10  10   1 18 
   1  10  10  10  10   1 18 
   2  10  10  10  10   1 20 
   7  10  10  10  10   1 20 
  10  10  10  10  10   1 22
   3  10  10  10  10   1 22
   0   0   0   0   0   0 
